(set-logic QF_S)
(declare-fun var0 () String)
(declare-fun var1 () Int)
(declare-fun var2 () String)
(declare-fun var3 () String)
(declare-fun var4 () String)
(declare-fun var5 () Int)
(declare-fun var6 () Int)
(declare-fun var7 () Int)
(assert (str.contains (str.at (str.substr var0 var1 161) (str.indexof var2 var3 168)) (str.replace var4 var4 var0)))
(assert (> var5 var6))
(assert (str.prefixof (str.at (str.replace var2 var3 var4) (str.len var3)) (str.substr var3 var7 var5)))
(assert (<= (str.to.int (str.at var0 var7)) (str.to.int var4)))
(check-sat)